&CONTROL
  calculation = 'vc-relax'
  etot_conv_thr =   1.2000000000d-04
  forc_conv_thr =   1.0000000000d-04
  outdir = './out/'
  prefix = 'aiida'
  pseudo_dir = './pseudo/'
  tprnfor = .true.
  tstress = .true.
  verbosity = 'high'
/
&SYSTEM
  degauss =   2.0000000000d-02
  ecutrho =   4.0000000000d+02
  ecutwfc =   5.0000000000d+01
  ibrav = 0
  nat = 12
  nosym = .false.
  ntyp = 3
  occupations = 'smearing'
  smearing = 'cold'
/
&ELECTRONS
  conv_thr =   2.4000000000d-09
  electron_maxstep = 80
  mixing_beta =   4.0000000000d-01
/
&IONS
ion_dynamics   =   'bfgs'
/
&CELL
cell_dynamics = 'bfgs'
/
ATOMIC_SPECIES
O      15.9994 O.pbe-n-kjpaw_psl.0.1.UPF
V      50.9415 v_pbe_v1.4.uspp.F.UPF
Y      88.90585 Y_pbe_v1.uspp.F.UPF
ATOMIC_POSITIONS crystal
O            0.0754544800       0.3908483400       0.3153938600
O            0.5100606200       0.3254544800       0.1846061400
O            0.1408483400       0.3254544800       0.8153938600
O            0.0754544800       0.7600606200       0.6846061400
O            0.6091516600       0.9245455200       0.6846061400
O            0.6745455200       0.4899393800       0.8153938600
O            0.6745455200       0.8591516600       0.1846061400
O            0.2399393800       0.9245455200       0.3153938600
V            0.5000000000       0.5000000000       0.0000000000
V            0.2500000000       0.7500000000       0.5000000000
Y            0.0000000000       0.0000000000       0.0000000000
Y            0.7500000000       0.2500000000       0.5000000000
K_POINTS automatic
4 4 4 0 0 0
CELL_PARAMETERS angstrom
      3.5673489700       3.5673489700       3.1483479450
     -3.5673489700      -3.5673489700       3.1483479450
      3.5673489700      -3.5673489700      -3.1483479450
